AES/1_3_4/ssaes_r1-20_c3_rw1_e4_f0_k1-20_aes_1base_box_aes_mc_bidirectional/ExperimentMinisat_r17_k13cnf_2011-10-29-153217/Result
WARNING: for repeatability, setting FPU to use double precision
============================[ Problem Statistics ]=============================
|                                                                             |
|  Number of variables:           988                                         |
|  Number of clauses:            4332                                         |
|  Parse time:                   0.00 s                                       |
|  Eliminated clauses:           0.01 Mb                                      |
|  Simplification time:          0.00 s                                       |
|                                                                             |
=============================[ Search Statistics ]==============================
| Conflicts  |          ORIGINAL         |          LEARNT          | Progress |
|            |    Vars  Clauses Literals |    Limit  Clauses Lit/Cl |          |
================================================================================
|        100 |     680     3444    11328 |     1262      100     11 |  9.312 % |
|        250 |     680     3444    11328 |     1389      250     12 |  9.312 % |
|        475 |     680     3444    11328 |     1527      475     12 |  9.312 % |
===============================================================================
restarts              : 5
conflicts             : 550            (14105 /sec)
decisions             : 676            (0.00 % random) (17336 /sec)
propagations          : 188587         (4836308 /sec)
conflict literals     : 6911           (40.72 % deleted)
Memory used           : 8.00 MB
CPU time              : 0.038994 s

SATISFIABLE
